sifdecoder -A pc64.lnx.gfo -st   A0NNDNSL

 Problem name: A0NNDNSL

 Double precision version will be formed

 The objective function uses 2 linear groups
 
 There are 20004 linear equality constraints
 
 There are 15004 free variables
 There are 10000 variables bounded only from below 
 There are 35008 fixed variables
 
 
 File successfully decoded
 CUTEST: tools (double precision version) compiled successfully
 CUTEst: ipopt (double precision version) compiled successfully

******************************************************************************
This program contains Ipopt, a library for large-scale nonlinear optimization.
 Ipopt is released as open source code under the Eclipse Public License (EPL).
         For more information visit http://projects.coin-or.org/Ipopt
******************************************************************************

This is Ipopt version trunk, running with linear solver ma57.

Number of nonzeros in equality constraint Jacobian...:    78026
Number of nonzeros in inequality constraint Jacobian.:        0
Number of nonzeros in Lagrangian Hessian.............:    30004

Total number of variables............................:    25004
                     variables with only lower bounds:    10000
                variables with lower and upper bounds:        0
                     variables with only upper bounds:        0
Total number of equality constraints.................:    20004
Total number of inequality constraints...............:        0
        inequality constraints with only lower bounds:        0
   inequality constraints with lower and upper bounds:        0
        inequality constraints with only upper bounds:        0

iter    objective    inf_pr   inf_du lg(mu)  ||d||  lg(rg) alpha_du alpha_pr  ls
   0  4.9999900e-01 9.92e+01 6.30e-01  -1.0 0.00e+00    -  0.00e+00 0.00e+00   0
   1  5.0269656e-01 9.90e+01 1.08e+00  -1.0 1.32e+02    -  9.95e-04 1.98e-03h  1
   2  5.9779685e-01 9.89e+01 1.08e+00  -1.0 1.62e+02    -  1.70e-03 1.68e-03f  1
   3  7.5276341e-01 9.87e+01 1.08e+00  -1.0 1.08e+02    -  1.79e-03 1.91e-03f  1
   4  9.3975014e-01 9.85e+01 1.07e+00  -1.0 7.24e+01    -  1.91e-03 2.03e-03f  1
   5  1.1503730e+00 9.83e+01 1.07e+00  -1.0 6.01e+01    -  1.98e-03 2.11e-03f  1
   6  1.5130964e+00 9.79e+01 1.07e+00  -1.0 8.06e+01    -  2.80e-03 3.42e-03f  1
   7  1.9686806e+00 9.76e+01 1.16e+00  -1.0 9.47e+01    -  3.43e-03 3.99e-03f  1
   8  2.7814681e+00 9.69e+01 2.14e+00  -1.0 8.93e+01    -  4.55e-03 6.56e-03f  1
   9  3.5546487e+00 9.64e+01 2.15e+00  -1.0 1.02e+02    -  4.82e-03 5.77e-03f  1
iter    objective    inf_pr   inf_du lg(mu)  ||d||  lg(rg) alpha_du alpha_pr  ls
  10  5.1266304e+00 9.53e+01 2.13e+00  -1.0 1.19e+02    -  1.09e-02 1.07e-02f  1
  11  7.3415542e+00 9.40e+01 2.10e+00  -1.0 1.31e+02    -  1.94e-02 1.36e-02f  1
  12  1.9016830e+01 8.87e+01 3.45e+00  -1.0 1.36e+02    -  2.28e-02 5.66e-02f  1
  13  1.3219887e+02 6.20e+01 1.02e+01  -1.0 1.18e+02    -  4.70e-02 3.01e-01f  1
  14  2.3678940e+02 3.95e+01 5.24e+00  -1.0 7.17e+01    -  2.43e-01 3.62e-01f  1
  15  3.0628316e+02 2.58e+01 5.11e+00  -1.0 3.07e+01    -  6.08e-01 3.47e-01f  1
  16  3.7853092e+02 1.25e+01 2.84e+00  -1.0 3.76e+01    -  5.23e-01 5.15e-01h  1
  17  4.1602495e+02 5.85e+00 1.74e+00  -1.0 8.32e+01    -  5.40e-01 5.34e-01h  1
  18  4.3172177e+02 3.07e+00 8.16e+01  -1.0 1.41e+02    -  6.21e-01 4.74e-01f  1
  19  4.4265498e+02 1.36e+00 3.33e+01  -1.0 4.29e+01    -  5.52e-01 5.58e-01f  1
iter    objective    inf_pr   inf_du lg(mu)  ||d||  lg(rg) alpha_du alpha_pr  ls
  20  4.4724427e+02 6.65e-01 5.27e+03  -1.0 8.64e+01    -  5.77e-02 5.10e-01f  1
  21  4.4898877e+02 3.99e-01 2.28e+04  -1.0 5.42e+01    -  2.21e-02 4.01e-01h  1
  22  4.4963937e+02 3.06e-01 1.73e+04  -1.0 1.98e+01    -  8.43e-02 2.33e-01h  1
  23  4.5027023e+02 2.15e-01 8.68e+03  -1.0 1.94e+01    -  1.22e-01 2.96e-01h  1
  24  4.5086361e+02 1.26e-01 2.43e+05  -1.0 2.24e+01    -  1.27e-02 4.13e-01h  1
  25  4.5063563e+02 8.68e-02 4.24e+05  -1.0 1.88e+02    -  9.10e-03 3.13e-01h  1
  26  4.5084679e+02 7.31e-02 3.56e+05  -1.0 1.93e+02    -  9.37e-03 1.58e-01h  1
  27  4.5099909e+02 6.13e-02 2.41e+05  -1.0 9.34e+01    -  4.46e-02 1.61e-01h  1
  28  4.5113412e+02 4.98e-02 2.29e+05  -1.0 7.19e+01    -  4.81e-03 1.89e-01h  1
  29  4.5129003e+02 3.66e-02 1.24e+06  -1.0 2.33e+01    -  5.29e-03 2.64e-01h  1
iter    objective    inf_pr   inf_du lg(mu)  ||d||  lg(rg) alpha_du alpha_pr  ls
  30  4.5134321e+02 3.22e-02 1.09e+06  -1.0 8.09e+00  -4.0 8.17e-03 1.20e-01h  1
  31  4.5138810e+02 2.79e-02 8.16e+05  -1.0 1.43e+01  -4.5 2.69e-02 1.34e-01h  1
  32  4.5144046e+02 2.36e-02 6.61e+05  -1.0 1.97e+01  -5.0 3.22e-03 1.55e-01h  1
  33  4.5149219e+02 1.87e-02 2.28e+06  -1.0 2.24e+01  -5.4 3.71e-03 2.06e-01h  1
  34  4.5151625e+02 1.68e-02 2.04e+06  -1.0 1.99e+01  -5.0 7.62e-03 1.03e-01h  1
  35  4.5153523e+02 1.49e-02 1.60e+06  -1.0 2.29e+01  -5.5 2.62e-02 1.15e-01h  1
  36  4.5156132e+02 1.27e-02 1.32e+06  -1.0 2.05e+01  -5.1 2.74e-03 1.45e-01h  1
  37  4.5158807e+02 1.00e-02 4.40e+06  -1.0 2.36e+01  -5.5 3.76e-03 2.10e-01h  1
  38  4.5160028e+02 9.08e-03 3.97e+06  -1.0 2.07e+01  -5.1 8.78e-03 9.62e-02h  1
  39  4.5160497e+02 8.56e-03 3.55e+06  -1.0 2.41e+01  -5.6 1.22e-02 5.75e-02f  2
iter    objective    inf_pr   inf_du lg(mu)  ||d||  lg(rg) alpha_du alpha_pr  ls
  40  4.5167397e+02 1.95e-03 8.39e+05  -1.0 2.11e+01  -5.2 9.87e-01 7.72e-01h  1
Reallocating memory for MA57: lfact (829822)
  41  4.4843147e+02 1.58e-03 1.29e+06  -1.0 1.35e+03    -  4.44e-02 1.92e-01f  1
  42  4.5027925e+02 9.17e-04 7.41e+05  -1.0 4.68e+02    -  4.02e-01 4.18e-01f  2
Reallocating memory for MA57: lfact (897999)
  43  4.5102691e+02 5.43e-04 6.65e+05  -1.0 8.37e+02    -  6.37e-01 4.08e-01f  2
  44  4.5143579e+02 2.71e-04 1.84e+05  -1.0 2.10e+03    -  3.25e-01 5.00e-01f  2
  45  4.5158601e+02 1.36e-04 2.90e+05  -1.0 6.87e+03    -  6.03e-01 5.00e-01f  2
Reallocating memory for MA57: lfact (1142499)
  46  4.5168430e+02 1.33e-09 2.05e+06  -1.0 1.48e+04    -  3.85e-01 1.00e+00f  1
Reallocating memory for MA57: lfact (1918052)
Reallocating memory for MA57: lfact (2037430)
  47  4.5174169e+02 1.34e-08 1.13e-05  -1.0 4.44e+00  -5.6 1.00e+00 1.00e+00f  1
  48  2.1068180e+02 1.47e-08 5.99e+00  -5.7 2.76e+02    -  5.29e-01 5.29e-01f  1
  49  1.8293829e+02 1.28e-08 5.66e+00  -5.7 6.69e+02    -  1.29e-01 1.29e-01f  1
iter    objective    inf_pr   inf_du lg(mu)  ||d||  lg(rg) alpha_du alpha_pr  ls
  50  1.4682452e+02 1.03e-08 8.25e+00  -5.7 1.12e+02    -  1.97e-01 1.97e-01f  1
  51  1.3851568e+02 9.74e-09 6.84e+00  -5.7 4.13e+02    -  5.47e-02 5.47e-02f  1
  52  1.1120045e+02 7.83e-09 9.46e+00  -5.7 9.15e+01    -  1.96e-01 1.96e-01f  1
  53  9.2345159e+00 1.20e-08 3.09e+05  -5.7 8.25e+00  -6.1 8.33e-01 9.21e-01f  1
  54  3.8516507e-01 4.18e-10 1.48e+07  -5.7 2.57e+01    -  1.32e-01 9.65e-01f  1
  55  2.3474749e-02 2.42e-10 1.61e+04  -5.7 2.94e+01    -  9.83e-01 1.00e+00f  1
  56  7.0811281e-03 1.38e-10 8.49e+03  -5.7 7.92e+03    -  5.55e-01 1.00e+00f  1
  57  1.9084177e-03 6.96e-11 1.90e+03  -5.7 4.21e-01  -6.6 7.27e-01 9.95e-01f  1
  58 -3.5580738e-02 8.80e-10 3.56e+06  -5.7 1.74e+06    -  1.00e-02 1.38e-01f  1
  59 -3.5691160e-02 7.53e-10 3.25e+05  -5.7 4.76e+02  -7.1 1.00e+00 7.05e-02f  1
iter    objective    inf_pr   inf_du lg(mu)  ||d||  lg(rg) alpha_du alpha_pr  ls
  60 -3.5772081e-02 1.00e-08 7.47e+06  -5.7 8.57e+02  -6.6 9.88e-01 2.46e-05f  1
  61 -3.9680167e-02 9.30e-09 6.89e+06  -5.7 8.29e-02  -4.4 7.81e-02 1.41e-01f  1
  62 -3.9678611e-02 9.30e-09 6.56e+06  -5.7 6.87e-01  -4.9 4.72e-02 5.68e-06h 17
  63 -2.1451494e-02 2.81e-08 6.29e+06  -5.7 6.70e-02  -4.5 4.19e-02 4.19e-02s 21
  64  1.2929248e-02 5.35e-08 5.91e+06  -5.7 1.02e+00  -4.9 6.05e-02 6.05e-02s 21
  65  7.6299652e-02 1.01e-07 5.27e+06  -5.7 7.15e-02  -4.5 1.08e-01 1.08e-01s 21
  66  1.7116851e-01 1.67e-07 4.26e+06  -5.7 9.64e-01  -5.0 1.92e-01 1.92e-01s 21
  67  2.9417861e-01 2.49e-07 2.49e+06  -5.7 6.60e-02  -4.6 4.14e-01 4.14e-01s 21
  68  2.5680743e-01 2.15e-07 1.38e-06  -5.7 1.51e-01  -5.0 1.00e+00 1.00e+00s 21
  69 -6.3509348e-02 5.00e-09 2.82e-01  -8.6 3.26e-02  -5.5 9.95e-01 9.91e-01f  1
iter    objective    inf_pr   inf_du lg(mu)  ||d||  lg(rg) alpha_du alpha_pr  ls
  70 -6.7404378e-02 4.99e-09 7.90e-09  -8.6 7.79e-03  -6.0 1.00e+00 1.00e+00f  1
  71 -6.6550792e-02 5.00e-09 3.42e+01  -9.0 2.47e-02  -6.5 6.24e-01 1.00e+00h  1
  72 -6.5605990e-02 4.99e-09 9.07e+01  -9.0 7.49e-02  -6.9 2.75e-01 1.00e+00h  1
  73 -6.5403268e-02 4.98e-09 1.44e+02  -9.0 2.24e-01  -7.4 2.06e-01 1.00e+00h  1
  74 -6.5220694e-02 4.95e-09 1.98e+02  -9.0 6.77e-01  -7.9 1.52e-01 1.00e+00h  1
  75 -6.5054522e-02 4.60e-09 2.43e+02  -9.0 2.06e+00  -8.4 1.34e-01 1.00e+00h  1
  76 -6.5053524e-02 4.50e-09 3.64e+02  -9.0 7.22e+00  -8.9 6.16e-02 1.00e+00H  1
  77 -6.4996435e-02 4.50e-09 3.14e+02  -9.0 2.38e+01  -9.3 1.22e-01 2.87e-02h  4
  78 -6.4590531e-02 4.47e-09 3.05e+02  -9.0 1.97e+02  -9.8 2.69e-02 2.69e-02s 21
  79 -6.4272352e-02 4.40e-09 2.65e+02  -9.0 4.40e+01  -9.4 1.30e-01 1.30e-01s 21
iter    objective    inf_pr   inf_du lg(mu)  ||d||  lg(rg) alpha_du alpha_pr  ls
  80 -6.1078637e-02 5.58e-09 2.30e+02  -9.0 3.28e+02  -9.9 1.33e-01 1.33e-01s 21
  81 -6.1208270e-02 5.37e-09 1.84e+02  -9.0 4.05e+01  -9.4 2.02e-01 2.02e-01s 21
  82 -5.8019759e-02 7.84e-09 1.73e+02  -9.0 7.99e+02  -9.9 6.02e-02 6.02e-02s 21
  83 -5.8189008e-02 7.69e-09 1.64e+02  -9.0 3.88e+01  -9.5 5.18e-02 5.18e-02s 21
  84 -5.8722552e-02 7.21e-09 1.46e+02  -9.0 1.12e+01  -9.1 1.09e-01 1.09e-01s 21
  85 -5.8891828e-02 7.01e-09 1.31e+02  -9.0 4.68e+01  -9.5 1.04e-01 1.04e-01s 21
  86 -5.8926400e-02 6.98e-09 1.29e+02  -9.0 1.25e+01  -9.1 9.30e-03 9.30e-03s 21
  87 -5.8934125e-02 6.96e-09 1.27e+02  -9.0 5.64e+01  -9.6 2.11e-02 2.11e-02s 21
  88 -5.9090084e-02 6.82e-09 1.21e+02  -9.0 1.43e+01  -9.2 4.52e-02 4.52e-02s 21
  89r-5.9090084e-02 6.82e-09 1.00e+03  -8.2 0.00e+00  -9.6 0.00e+00 0.00e+00R  1
iter    objective    inf_pr   inf_du lg(mu)  ||d||  lg(rg) alpha_du alpha_pr  ls
  90r-6.0075850e-02 6.75e-09 1.02e+03  -8.2 6.69e-03    -  7.35e-04 1.01e-03f  1
  91r-6.0760391e-02 6.71e-09 9.97e+02  -8.2 6.74e-03    -  4.73e-03 1.79e-03f  1
  92r-6.1222559e-02 6.69e-09 9.93e+02  -8.2 7.59e-03    -  3.56e-03 4.53e-03f  1
  93r-6.1458301e-02 6.61e-09 1.14e+03  -8.2 7.61e-03    -  9.52e-05 4.51e-03f  1
  94r-6.1504072e-02 6.60e-09 1.10e+03  -8.2 7.67e-03    -  6.07e-03 1.64e-03f  1
  95r-6.1569061e-02 6.58e-09 1.25e+03  -8.2 7.65e-03    -  1.43e-04 2.98e-03f  1
  96r-6.1617079e-02 6.58e-09 1.10e+03  -8.2 7.66e-03    -  5.43e-03 3.14e-03f  1
  97r-6.1692627e-02 6.52e-09 1.24e+03  -8.2 7.57e-03    -  8.55e-05 3.69e-03f  1
  98r-6.1702241e-02 6.52e-09 1.24e+03  -8.2 7.61e-03    -  6.07e-03 1.01e-03f  1
  99r-6.1822376e-02 6.41e-09 1.39e+03  -8.2 7.55e-03    -  7.13e-05 7.97e-03f  1
iter    objective    inf_pr   inf_du lg(mu)  ||d||  lg(rg) alpha_du alpha_pr  ls
 100r-6.1826153e-02 6.41e-09 1.39e+03  -8.2 7.54e-03    -  6.50e-03 5.56e-04h  1
 101r-6.1905652e-02 6.32e-09 1.38e+03  -8.2 7.49e-03    -  7.39e-05 6.73e-03f  1
 102r-6.1908126e-02 6.32e-09 1.38e+03  -8.2 7.48e-03    -  6.55e-03 4.95e-04h  1
 103r-6.2007948e-02 6.20e-09 1.37e+03  -8.2 7.43e-03    -  7.24e-05 9.06e-03f  1
 104r-6.2009648e-02 6.19e-09 1.37e+03  -8.2 7.40e-03    -  6.82e-03 3.47e-04h  1
 105r-6.2097269e-02 6.07e-09 1.36e+03  -8.2 7.35e-03    -  7.39e-05 9.02e-03f  1
 106r-6.2097938e-02 6.07e-09 1.36e+03  -8.2 7.32e-03    -  6.95e-03 1.56e-04h  2
 107r-6.2177504e-02 5.95e-09 1.35e+03  -8.2 7.28e-03    -  7.42e-05 9.31e-03f  1
 108r-6.2211166e-02 5.89e-09 1.34e+03  -8.2 6.86e-03    -  2.91e-03 6.47e-04f  1
 109r-6.2213786e-02 5.89e-09 1.34e+03  -8.2 7.26e-03    -  6.25e-03 1.45e-03h  1
iter    objective    inf_pr   inf_du lg(mu)  ||d||  lg(rg) alpha_du alpha_pr  ls
 110r-6.2237272e-02 5.85e-09 1.34e+03  -8.2 7.20e-03    -  1.02e-04 3.21e-03f  1
 111r-6.2239189e-02 5.85e-09 1.34e+03  -8.2 7.22e-03    -  6.48e-03 1.24e-03h  1
 112r-6.2281507e-02 5.77e-09 1.33e+03  -8.2 7.15e-03    -  8.56e-05 4.83e-03f  1
 113r-6.2282590e-02 5.77e-09 1.33e+03  -8.2 7.17e-03    -  7.10e-03 6.11e-04h  1
 114r-6.2303027e-02 5.73e-09 1.33e+03  -8.2 7.12e-03    -  9.69e-05 3.05e-03f  1
 115r-6.2304043e-02 5.73e-09 1.32e+03  -8.2 7.15e-03    -  6.93e-03 8.17e-04h  1
 116r-6.2332035e-02 5.68e-09 1.32e+03  -8.2 7.08e-03    -  8.57e-05 3.71e-03f  1
 117r-6.2332762e-02 5.68e-09 1.32e+03  -8.2 7.11e-03    -  7.13e-03 5.51e-04h  1
 118r-6.2400867e-02 5.53e-09 1.31e+03  -8.2 7.04e-03    -  7.92e-05 8.93e-03f  1
 119r-6.2401212e-02 5.53e-09 1.31e+03  -8.2 7.02e-03    -  4.90e-03 1.43e-04h  2
iter    objective    inf_pr   inf_du lg(mu)  ||d||  lg(rg) alpha_du alpha_pr  ls
 120r-6.2335282e-02 5.52e-09 1.30e+03  -8.2 7.04e-03    -  1.38e-04 2.88e-03f  1
 121r-6.2337604e-02 5.52e-09 1.30e+03  -8.2 7.02e-03    -  2.60e-03 2.39e-03h  1
 122r-6.2395294e-02 5.38e-09 1.30e+03  -8.2 6.63e-03    -  5.29e-05 1.63e-03f  1
 123r-6.2396044e-02 5.38e-09 1.30e+03  -8.2 6.97e-03    -  7.85e-03 2.62e-04h  1
 124r-6.2448181e-02 5.26e-09 1.29e+03  -8.2 6.93e-03    -  8.50e-05 8.73e-03f  1
 125r-6.2448505e-02 5.26e-09 1.29e+03  -8.2 6.91e-03    -  8.43e-03 1.44e-04h  2
 126r-6.2455981e-02 5.24e-09 1.28e+03  -8.2 6.88e-03    -  1.36e-04 1.99e-03h  1
 127r-6.2457234e-02 5.24e-09 1.28e+03  -8.2 6.91e-03    -  7.24e-03 2.14e-03h  1
 128r-6.2536535e-02 5.02e-09 1.48e+03  -8.2 6.80e-03    -  8.31e-05 1.09e-02f  1
 129r-6.2537381e-02 5.02e-09 1.48e+03  -8.2 6.77e-03    -  9.60e-03 2.13e-04h  1
iter    objective    inf_pr   inf_du lg(mu)  ||d||  lg(rg) alpha_du alpha_pr  ls
 130r-6.2543421e-02 5.00e-09 1.47e+03  -8.2 6.78e-03    -  1.78e-04 2.31e-03h  1
 131r-6.2545084e-02 5.00e-09 1.47e+03  -8.2 6.79e-03    -  7.19e-03 3.88e-03h  1
 132r-6.2574283e-02 4.90e-09 1.46e+03  -8.2 6.66e-03    -  9.21e-05 4.11e-03f  1
 133r-6.2574678e-02 4.90e-09 1.46e+03  -8.2 6.72e-03    -  8.40e-03 3.43e-04h  1
 134r-6.2619881e-02 4.74e-09 1.45e+03  -8.2 6.67e-03    -  9.39e-05 1.03e-02f  1
 135r-6.2620140e-02 4.74e-09 1.45e+03  -8.2 6.65e-03    -  1.78e-02 2.41e-04h  2
 136r-6.2627679e-02 4.71e-09 1.44e+03  -8.2 6.64e-03    -  3.57e-04 7.64e-03h  1
 137r-6.2627828e-02 4.71e-09 1.43e+03  -8.2 6.60e-03    -  8.42e-03 9.92e-04h  1
 138r-6.2633153e-02 4.68e-09 1.43e+03  -8.2 6.54e-03    -  1.21e-04 2.28e-03f  1
 139r-6.2632889e-02 4.68e-09 1.43e+03  -8.2 6.58e-03    -  4.37e-03 8.48e-04h  1
iter    objective    inf_pr   inf_du lg(mu)  ||d||  lg(rg) alpha_du alpha_pr  ls
 140r-6.2544731e-02 4.67e-09 1.42e+03  -8.2 6.57e-03    -  9.54e-05 3.49e-03f  1
 141r-6.2543542e-02 4.67e-09 1.42e+03  -8.2 6.54e-03    -  4.14e-03 2.38e-03h  1
 142r-6.2550901e-02 4.57e-09 1.42e+03  -8.2 6.29e-03    -  8.18e-05 1.86e-03f  1
 143r-6.2546103e-02 4.57e-09 1.42e+03  -8.2 6.51e-03    -  8.23e-04 3.32e-04h  2
 144r-6.2488890e-02 4.57e-09 1.42e+03  -8.2 6.51e-03    -  1.62e-03 2.29e-03f  1
 145 -6.2493436e-02 4.57e-09 2.38e+05  -9.0 3.00e+02    -  2.75e-01 1.24e-05f  1
 146 -6.2473336e-02 4.56e-09 5.87e+06  -9.0 4.27e+01    -  1.62e-04 1.11e-03h 10
In iteration 146, 1 Slack too small, adjusting variable bound
 147 -6.2353833e-02 4.53e-09 6.73e+06  -9.0 4.28e+01    -  1.28e-03 6.62e-03h  1
 148 -5.8504693e-02 3.56e-09 6.40e+06  -9.0 4.28e+01    -  7.96e-03 2.15e-01h  1
 149 -5.8504687e-02 3.56e-09 5.69e+06  -9.0 4.32e+01    -  2.25e-01 4.77e-07h 22
iter    objective    inf_pr   inf_du lg(mu)  ||d||  lg(rg) alpha_du alpha_pr  ls
 150 -4.4411818e-02 2.84e-10 1.84e+06  -9.0 5.57e+01    -  2.50e-01 1.00e+00h  1
 151 -4.4414779e-02 1.36e-10 5.39e+02  -9.0 7.42e+01    -  1.00e+00 1.00e+00h  1
 152 -4.4481365e-02 3.81e-10 1.71e+01  -9.0 6.69e+01 -10.1 9.98e-01 1.00e+00f  1
 153 -4.4481049e-02 1.22e-10 2.73e+04  -9.0 2.07e+02 -10.6 9.95e-01 3.91e-03h  9
 154 -4.4482580e-02 4.76e-10 7.26e-09  -9.0 2.62e-02  -6.6 1.00e+00 1.00e+00h  1

Number of Iterations....: 154

                                   (scaled)                 (unscaled)
Objective...............:  -4.4482580094915007e-02   -4.4482580094915007e-02
Dual infeasibility......:   7.2596550211032570e-09    7.2596550211032570e-09
Constraint violation....:   4.7592790819450670e-10    4.7592790819450670e-10
Complementarity.........:   1.3547422744067100e-09    1.3547422744067100e-09
Overall NLP error.......:   7.6523167695259641e-10    7.2596550211032570e-09


Number of objective function evaluations             = 279
Number of objective gradient evaluations             = 100
Number of equality constraint evaluations            = 279
Number of inequality constraint evaluations          = 0
Number of equality constraint Jacobian evaluations   = 155
Number of inequality constraint Jacobian evaluations = 0
Number of Lagrangian Hessian evaluations             = 154
Total CPU secs in IPOPT (w/o function evaluations)   =     46.057
Total CPU secs in NLP function evaluations           =      9.267

EXIT: Optimal Solution Found.

************************ CUTEst statistics ************************


 Package used            :  IPOPT
 Problem                 :  A0NNDNSL  
 # variables             =           60012
 # constraints           =           20004
 # objective functions   =        0.3800000E+03
 # objective gradients   =        0.1010000E+03
 # objective Hessians    =        0.1540000E+03
 # Hessian-vector prdct  =        0.0000000E+00
 # constraints functions =        0.4360000E+03
 # constraints gradients =        0.1570000E+03
 # constraints Hessians  =        0.1540000E+03
 Exit code               =               0
 Final f                 =       -4.4482580094915007D-02
 Bounds feasibility      =        1.0000000715647923D-08
 Set up time             =            0.77 seconds
 Solve time              =          113.91 seconds


******************************************************************

